p edge 60 518 48
e 1 3
e 1 6
e 1 9
e 1 13
e 1 18
e 1 30
e 1 33
e 1 39
e 1 51
e 1 53
e 1 54
e 1 56
e 1 60
e 2 19
e 2 20
e 2 24
e 2 27
e 2 29
e 2 32
e 2 34
e 2 35
e 2 36
e 2 37
e 2 39
e 2 43
e 2 44
e 2 47
e 2 49
e 2 57
e 2 58
e 3 7
e 3 12
e 3 15
e 3 16
e 3 18
e 3 30
e 3 33
e 3 39
e 3 49
e 3 53
e 3 55
e 3 59
e 3 60
e 4 11
e 4 13
e 4 14
e 4 15
e 4 17
e 4 19
e 4 20
e 4 21
e 4 28
e 4 37
e 4 41
e 4 45
e 4 48
e 4 49
e 4 53
e 4 58
e 5 7
e 5 9
e 5 12
e 5 13
e 5 15
e 5 16
e 5 18
e 5 27
e 5 33
e 5 34
e 5 36
e 5 37
e 5 39
e 5 45
e 5 46
e 5 51
e 5 54
e 6 12
e 6 13
e 6 15
e 6 18
e 6 19
e 6 22
e 6 26
e 6 27
e 6 38
e 6 40
e 6 43
e 6 44
e 6 46
e 6 48
e 6 50
e 6 54
e 7 8
e 7 15
e 7 16
e 7 19
e 7 23
e 7 24
e 7 25
e 7 26
e 7 34
e 7 46
e 7 48
e 7 49
e 7 52
e 7 54
e 7 55
e 7 59
e 8 10
e 8 12
e 8 19
e 8 20
e 8 21
e 8 24
e 8 27
e 8 33
e 8 35
e 8 36
e 8 37
e 8 40
e 8 41
e 8 43
e 8 44
e 8 46
e 8 56
e 9 14
e 9 15
e 9 16
e 9 20
e 9 27
e 9 31
e 9 34
e 9 37
e 9 40
e 9 41
e 9 46
e 9 49
e 9 53
e 9 55
e 9 58
e 10 21
e 10 27
e 10 29
e 10 37
e 10 45
e 10 47
e 10 48
e 10 51
e 10 53
e 10 60
e 11 12
e 11 14
e 11 15
e 11 17
e 11 18
e 11 20
e 11 21
e 11 22
e 11 28
e 11 29
e 11 37
e 11 42
e 11 43
e 11 45
e 11 46
e 11 54
e 11 56
e 11 57
e 12 13
e 12 21
e 12 23
e 12 24
e 12 25
e 12 27
e 12 38
e 12 41
e 12 43
e 12 49
e 12 50
e 12 52
e 12 53
e 12 55
e 12 60
e 13 15
e 13 18
e 13 19
e 13 24
e 13 25
e 13 27
e 13 29
e 13 30
e 13 35
e 13 39
e 13 40
e 13 42
e 13 44
e 13 45
e 13 46
e 13 48
e 13 49
e 13 52
e 14 19
e 14 20
e 14 25
e 14 28
e 14 44
e 14 45
e 14 48
e 15 22
e 15 23
e 15 25
e 15 33
e 15 34
e 15 37
e 15 39
e 15 43
e 15 44
e 15 45
e 15 57
e 15 59
e 16 18
e 16 22
e 16 23
e 16 27
e 16 30
e 16 33
e 16 36
e 16 40
e 16 45
e 16 46
e 16 48
e 16 49
e 16 51
e 16 52
e 16 53
e 16 56
e 17 19
e 17 22
e 17 23
e 17 26
e 17 30
e 17 31
e 17 40
e 17 41
e 17 43
e 17 45
e 17 46
e 17 48
e 17 51
e 17 55
e 17 57
e 17 60
e 18 19
e 18 20
e 18 27
e 18 30
e 18 37
e 18 38
e 18 45
e 18 47
e 18 48
e 18 49
e 18 54
e 18 57
e 18 60
e 19 20
e 19 23
e 19 26
e 19 29
e 19 30
e 19 35
e 19 37
e 19 38
e 19 39
e 19 42
e 19 43
e 19 48
e 19 50
e 19 59
e 19 60
e 20 21
e 20 22
e 20 26
e 20 27
e 20 33
e 20 34
e 20 35
e 20 36
e 20 39
e 20 40
e 20 45
e 20 48
e 20 53
e 20 56
e 20 60
e 21 25
e 21 31
e 21 33
e 21 39
e 21 44
e 21 46
e 21 50
e 21 52
e 21 59
e 21 60
e 22 25
e 22 27
e 22 33
e 22 34
e 22 35
e 22 43
e 22 44
e 22 47
e 22 54
e 22 57
e 22 59
e 23 27
e 23 29
e 23 36
e 23 38
e 23 39
e 23 50
e 23 51
e 23 52
e 23 57
e 24 30
e 24 43
e 24 47
e 24 48
e 24 50
e 24 56
e 24 60
e 25 26
e 25 28
e 25 33
e 25 38
e 25 39
e 25 40
e 25 41
e 25 45
e 25 46
e 25 54
e 25 57
e 25 58
e 25 59
e 26 28
e 26 30
e 26 41
e 26 43
e 26 44
e 26 46
e 26 49
e 26 52
e 26 54
e 26 60
e 27 31
e 27 32
e 27 33
e 27 36
e 27 41
e 27 45
e 27 46
e 27 50
e 27 54
e 27 55
e 27 59
e 28 32
e 28 33
e 28 37
e 28 41
e 28 42
e 28 43
e 28 45
e 28 49
e 28 50
e 28 54
e 28 59
e 29 31
e 29 32
e 29 35
e 29 39
e 29 45
e 29 50
e 29 55
e 29 56
e 29 57
e 29 58
e 30 33
e 30 36
e 30 39
e 30 43
e 30 44
e 30 60
e 31 34
e 31 35
e 31 36
e 31 37
e 31 43
e 31 46
e 31 50
e 32 33
e 32 34
e 32 36
e 32 41
e 32 42
e 32 45
e 32 51
e 32 53
e 32 55
e 32 57
e 33 35
e 33 43
e 33 46
e 33 47
e 33 58
e 33 60
e 34 37
e 34 42
e 34 45
e 34 48
e 34 52
e 34 55
e 35 40
e 35 42
e 35 46
e 35 48
e 35 49
e 35 53
e 35 58
e 35 60
e 36 37
e 36 49
e 36 50
e 36 54
e 37 39
e 37 40
e 37 47
e 37 52
e 38 39
e 38 40
e 38 47
e 38 48
e 38 55
e 38 59
e 38 60
e 39 41
e 39 45
e 39 57
e 40 43
e 40 47
e 40 50
e 40 51
e 40 53
e 40 54
e 40 56
e 40 57
e 40 58
e 41 45
e 41 48
e 41 51
e 41 52
e 41 56
e 41 57
e 41 60
e 42 45
e 42 49
e 42 54
e 42 57
e 42 60
e 43 46
e 43 47
e 43 48
e 43 58
e 44 45
e 44 47
e 44 50
e 44 51
e 44 52
e 44 54
e 44 55
e 44 59
e 44 60
e 45 50
e 45 52
e 45 53
e 45 54
e 45 56
e 45 60
e 46 47
e 46 49
e 46 51
e 46 52
e 46 54
e 47 48
e 47 50
e 47 54
e 47 59
e 48 49
e 48 51
e 48 54
e 48 55
e 48 59
e 49 50
e 49 54
e 49 55
e 49 56
e 49 60
e 50 51
e 50 52
e 50 54
e 50 55
e 52 54
e 52 58
e 53 57
e 54 56
e 54 59
e 55 57
e 57 58
